<number of tasks>
20


<number of equipment>
5


<cycle time>
1000


<investment costs>
1,24730
2,11353
3,17192
4,25030
5,7791


<task times>
1,-1,468,-1,369,573
2,-1,-1,668,-1,662
3,-1,564,-1,424,567
4,-1,568,-1,376,574
5,-1,498,-1,386,593
6,483,-1,509,388,-1
7,386,-1,490,374,-1
8,412,-1,535,532,-1
9,-1,-1,465,-1,566
10,-1,590,-1,417,636
11,408,-1,492,399,-1
12,-1,594,-1,433,625
13,-1,578,-1,419,594
14,-1,575,-1,454,604
15,-1,606,-1,589,640
16,-1,-1,475,-1,575
17,484,-1,493,445,-1
18,453,-1,578,473,-1
19,-1,581,-1,438,597
20,360,-1,442,357,-1


<precedence relations>
1,3
1,4
2,3
2,4
3,5
3,6
3,7
4,7
5,9
6,10
7,8
7,11
7,12
7,13
8,14
9,15
10,16
11,16
11,17
12,17
13,17
14,19
15,18
17,19
17,20


<task types>
1,3
2,1
3,3
4,3
5,3
6,2
7,2
8,2
9,1
10,3
11,2
12,3
13,3
14,3
15,3
16,1
17,2
18,2
19,3
20,2


<line depot>
1,0
2,0
3,7
4,0
5,13


<processing costs>
1,7200
2,7200
3,14400
4,14400
5,14400


<saving costs>
1,2473
2,1135
3,1719
4,2503
5,779


<end>
